c Mesh Graph
c 4 Rows, 16 columns, capacities in range [0, 1000]
p max 66 188
n 1 s
n 66 t
a 1 5 3000
a 1 4 3000
a 1 3 3000
a 1 2 3000
a 2 7 778
a 2 6 887
a 2 9 384
a 3 8 336
a 3 7 794
a 3 6 916
a 4 9 650
a 4 8 493
a 4 7 387
a 5 6 28
a 5 9 363
a 5 8 422
a 6 11 764
a 6 10 60
a 6 13 691
a 7 12 427
a 7 11 541
a 7 10 927
a 8 13 212
a 8 12 737
a 8 11 173
a 9 10 430
a 9 13 568
a 9 12 369
a 10 15 863
a 10 14 531
a 10 17 783
a 11 16 136
a 11 15 68
a 11 14 124
a 12 17 23
a 12 16 803
a 12 15 930
a 13 14 168
a 13 17 70
a 13 16 59
a 14 19 12
a 14 18 457
a 14 21 394
a 15 20 374
a 15 19 230
a 15 18 43
a 16 21 785
a 16 20 920
a 16 19 422
a 17 18 325
a 17 21 199
a 17 20 538
a 18 23 414
a 18 22 371
a 18 25 316
a 19 24 981
a 19 23 92
a 19 22 527
a 20 25 863
a 20 24 874
a 20 23 957
a 21 22 282
a 21 25 997
a 21 24 171
a 22 27 85
a 22 26 926
a 22 29 306
a 23 28 506
a 23 27 337
a 23 26 328
a 24 29 314
a 24 28 730
a 24 27 847
a 25 26 896
a 25 29 125
a 25 28 858
a 26 31 815
a 26 30 546
a 26 33 583
a 27 32 365
a 27 31 435
a 27 30 368
a 28 33 88
a 28 32 751
a 28 31 44
a 29 30 179
a 29 33 277
a 29 32 809
a 30 35 404
a 30 34 585
a 30 37 789
a 31 36 400
a 31 35 755
a 31 34 652
a 32 37 677
a 32 36 61
a 32 35 933
a 33 34 13
a 33 37 740
a 33 36 369
a 34 39 95
a 34 38 587
a 34 41 227
a 35 40 571
a 35 39 796
a 35 38 540
a 36 41 468
a 36 40 379
a 36 39 435
a 37 38 903
a 37 41 98
a 37 40 602
a 38 43 653
a 38 42 493
a 38 45 318
a 39 44 281
a 39 43 302
a 39 42 757
a 40 45 866
a 40 44 442
a 40 43 287
a 41 42 620
a 41 45 445
a 41 44 690
a 42 47 32
a 42 46 730
a 42 49 441
a 43 48 772
a 43 47 98
a 43 46 118
a 44 49 710
a 44 48 676
a 44 47 482
a 45 46 857
a 45 49 568
a 45 48 928
a 46 51 587
a 46 50 354
a 46 53 498
a 47 52 684
a 47 51 307
a 47 50 966
a 48 53 529
a 48 52 625
a 48 51 220
a 49 50 830
a 49 53 733
a 49 52 872
a 50 55 271
a 50 54 20
a 50 57 504
a 51 56 716
a 51 55 709
a 51 54 369
a 52 57 797
a 52 56 150
a 52 55 341
a 53 54 246
a 53 57 619
a 53 56 724
a 54 59 922
a 54 58 452
a 54 61 847
a 55 60 489
a 55 59 380
a 55 58 556
a 56 61 842
a 56 60 229
a 56 59 765
a 57 58 501
a 57 61 194
a 57 60 351
a 58 63 125
a 58 62 765
a 58 65 35
a 59 64 857
a 59 63 988
a 59 62 915
a 60 65 228
a 60 64 492
a 60 63 744
a 61 62 937
a 61 65 860
a 61 64 366
a 62 66 3000
a 63 66 3000
a 64 66 3000
a 65 66 3000
